
Gurobi 11.0.3 (linux64, gurobi_cl) logging started Tue Aug 27 11:12:35 2024

Set parameter Username
Set parameter LogFile to value "gurobi.log"
Using license file /home/will/gurobi.lic
Academic license - for non-commercial use only - expires 2025-08-27

Gurobi 11.0.3 (linux64, gurobi_cl) logging started Tue Aug 27 11:19:58 2024

Set parameter Username
Set parameter LogFile to value "gurobi.log"
Using license file /home/will/gurobi.lic
Academic license - for non-commercial use only - expires 2025-08-27
